NAME : eil76
COMMENT : 76-city
TYPE : TOUR
DIMENSION : 76
TOUR_LENGTH : 551
ERROR : 0.0241636
TOUR_SECTION
51
33
45
7
18
53
12
56
14
4
36
19
69
59
70
68
35
46
47
20
73
27
60
21
61
72
0
42
41
63
40
55
22
48
23
17
49
24
54
30
9
37
64
10
65
58
13
52
34
6
66
25
75
74
67
5
50
16
39
11
57
71
38
8
31
43
2
15
62
32
1
29
3
44
28
26
-1
EOF
